c Choco 231113
v <instantiation id='sol1' type='solution' ><list>amazons[0] amazons[1] amazons[2] amazons[3] amazons[4] amazons[5] amazons[6] amazons[7] amazons[8] amazons[9] </list><values>4 9 3 0 2 7 1 6 8 5 </values></instantiation>

s SATISFIABLE
v <instantiation id='sol1' type='solution' ><list>amazons[0] amazons[1] amazons[2] amazons[3] amazons[4] amazons[5] amazons[6] amazons[7] amazons[8] amazons[9] </list><values>4 9 3 0 2 7 1 6 8 5 </values></instantiation>
d FOUND SOLUTIONS 1

